814.30 0
0 8 14 59 11 66 65 38 0
0 67 7 53 35 19 54 13 57 15 5 0
0 26 12 72 58 10 31 39 9 55 25 0
0 28 21 47 36 37 20 70 60 71 69 61 0
0 4 45 29 27 52 46 34 0
0 17 40 3 44 32 50 18 24 49 0
0 16 33 73 62 74 48 30 2 68 75 0
0 6 51 63 23 56 41 43 42 64 22 1 0